objective value:                                  665
t_p_0.3                                             1 	(obj:0)
t_p_0.8                                             1 	(obj:0)
t_p_1.0                                             1 	(obj:0)
t_p_1.2                                             1 	(obj:0)
t_p_1.4                                             1 	(obj:0)
t_p_1.5                                             1 	(obj:0)
t_p_2.0                                             1 	(obj:0)
t_p_2.1                                             1 	(obj:0)
t_p_2.4                                             1 	(obj:0)
t_p_2.5                                             1 	(obj:0)
t_p_3.7                                             1 	(obj:0)
t_p_3.8                                             1 	(obj:0)
t_p_4.0                                             1 	(obj:0)
t_p_4.3                                             1 	(obj:0)
t_p_4.7                                             1 	(obj:0)
t_p_5.0                                             1 	(obj:0)
t_p_5.3                                             1 	(obj:0)
t_p_5.4                                             1 	(obj:0)
t_p_5.7                                             1 	(obj:0)
t_p_6.0                                             1 	(obj:0)
t_p_6.3                                             1 	(obj:0)
t_p_6.7                                             1 	(obj:0)
t_p_6.8                                             1 	(obj:0)
t_p_6.9                                             1 	(obj:0)
t_p_7.0                                             1 	(obj:0)
t_p_7.3                                             1 	(obj:0)
t_p_7.4                                             1 	(obj:0)
t_p_7.5                                             1 	(obj:0)
t_p_7.6                                             1 	(obj:0)
t_p_7.8                                             1 	(obj:0)
t_p_7.9                                             1 	(obj:0)
t_p_8.0                                             1 	(obj:0)
t_p_8.3                                             1 	(obj:0)
t_p_8.6                                             1 	(obj:0)
t_p_8.7                                             1 	(obj:0)
t_p_8.9                                             1 	(obj:0)
t_p_9.0                                             1 	(obj:0)
t_p_9.3                                             1 	(obj:0)
t_p_9.6                                             1 	(obj:0)
t_z_sb0_0                                           1 	(obj:0)
t_z_sb1_1                                           1 	(obj:0)
t_z_sb4_4                                           1 	(obj:0)
t_z_sb5_5                                           1 	(obj:0)
t_z_sb7_7                                           1 	(obj:0)
t_z_sb8_8                                           1 	(obj:0)
t_z_sb9_9                                           1 	(obj:0)
t_y_sb0_0                                         299 	(obj:0)
t_y_sb1_1                                         228 	(obj:0)
t_y_sb2_2                                         111 	(obj:0)
t_y_sb3_3                                         498 	(obj:0)
t_y_sb4_4                                         536 	(obj:0)
t_y_sb5_5                                         457 	(obj:0)
t_y_sb6_6                                         513 	(obj:0)
t_y_sb7_7                                         152 	(obj:0)
t_y_sb9_9                                         387 	(obj:0)
t_H                                               665 	(obj:1)
t_x_sb0_0                                         583 	(obj:0)
t_x_sb3_3                                         551 	(obj:0)
t_x_sb4_4                                         129 	(obj:0)
t_x_sb6_6                                         428 	(obj:0)
t_x_sb7_7                                         404 	(obj:0)
t_x_sb8_8                                         465 	(obj:0)
t_x_sb9_9                                         355 	(obj:0)
